param set_len = 22;
param target := 65952024;
param values := [1] 5013024 [2] 7172874 [3] 6989179 [4] 531638 [5] 7257849 [6] 3668436 [7] 624101 [8] 6644596 [9] 4770775 [10] 3712086 [11] 7670299 [12] 7196059 [13] 2100977 [14] 706803 [15] 7903210 [16] 7444966 [17] 4889105 [18] 3431673 [19] 6478721 [20] 2864352 [21] 6399702 [22] 5778975 ;
